48
3 1 1
4 0 1
4 2 2
6 0 3
6 1 3
6 2 1
6 3 3
6 5 2
7 1 2
7 5 3
8 5 3
9 2 3
9 4 2
9 7 3
10 1 3
10 2 3
10 3 3
10 5 3
11 4 2
11 6 3
11 7 2
11 8 1
11 9 2
12 0 1
12 2 2
12 4 1
12 7 1
12 9 2
12 10 2
13 3 1
13 6 1
13 7 1
13 8 3
13 9 2
13 12 2
14 0 3
14 2 3
14 3 2
14 4 3
14 5 1
14 7 1
14 11 3
14 12 1
15 0 3
15 3 3
15 4 3
15 6 1
15 7 2
15 9 2
15 12 2
15 13 1
15 14 2
16 0 2
16 2 2
16 4 2
16 6 2
16 10 2
16 12 3
16 13 2
16 15 3
17 3 2
17 5 1
17 6 1
17 8 2
17 10 3
17 12 2
17 14 3
17 15 3
18 1 1
18 4 2
18 5 1
18 6 2
18 7 2
18 8 2
18 13 2
18 15 1
18 16 2
18 17 1
19 0 1
19 4 2
19 10 2
19 12 3
19 17 3
19 18 2
20 1 2
20 4 2
20 5 3
20 7 3
20 8 1
20 11 3
20 12 1
20 13 3
20 16 1
20 17 3
20 18 3
21 0 1
21 4 1
21 5 2
21 6 3
21 8 2
21 9 3
21 10 1
21 14 2
21 15 3
21 18 1
22 0 2
22 3 3
22 6 1
22 10 3
22 12 1
22 14 2
22 15 1
22 17 3
22 18 1
22 19 1
22 20 3
23 2 1
23 3 3
23 4 3
23 6 2
23 9 1
23 11 3
23 13 3
23 14 2
23 15 1
23 16 1
24 0 3
24 1 1
24 2 3
24 3 3
24 5 3
24 7 3
24 10 1
24 12 2
24 13 3
24 16 2
24 18 1
24 19 2
24 21 2
24 22 1
25 1 1
25 2 3
25 3 3
25 7 3
25 10 3
25 12 2
25 14 3
25 17 2
25 18 2
25 21 2
26 0 1
26 4 3
26 6 2
26 8 2
26 12 3
26 13 3
26 18 3
26 19 1
26 21 1
26 23 2
26 24 1
27 0 2
27 1 1
27 4 3
27 5 1
27 7 2
27 10 3
27 11 3
27 16 1
27 19 2
27 20 2
27 22 2
27 23 3
27 25 2
27 26 3
28 4 1
28 5 2
28 7 3
28 8 3
28 9 1
28 15 1
28 18 2
28 19 3
28 22 2
28 24 1
28 25 1
28 27 1
29 0 3
29 1 3
29 2 1
29 3 1
29 5 3
29 6 3
29 7 2
29 10 2
29 12 3
29 13 2
29 14 3
29 16 3
29 18 2
29 21 3
29 23 2
29 24 2
29 26 1
29 28 3
30 1 1
30 2 2
30 4 2
30 7 2
30 8 1
30 9 3
30 10 2
30 11 2
30 13 2
30 14 3
30 15 3
30 17 2
30 18 3
30 22 1
30 23 1
30 25 1
30 28 2
30 29 3
31 0 2
31 3 3
31 4 1
31 7 1
31 8 2
31 11 1
31 12 1
31 13 3
31 14 3
31 18 2
31 19 1
31 20 3
31 21 3
31 24 2
31 25 3
31 26 3
31 27 1
31 29 1
32 2 3
32 4 2
32 5 2
32 7 1
32 19 1
32 20 2
32 22 3
32 26 1
32 27 2
32 30 1
33 0 1
33 5 3
33 6 1
33 9 2
33 11 2
33 16 1
33 18 2
33 19 3
33 24 3
33 25 1
33 26 1
33 28 3
33 30 2
33 32 3
34 1 3
34 2 3
34 3 2
34 8 3
34 10 2
34 12 2
34 16 1
34 19 3
34 22 3
34 24 1
34 26 1
34 27 1
34 28 2
34 29 1
34 30 3
34 31 1
35 0 1
35 5 3
35 6 2
35 8 2
35 11 3
35 12 2
35 15 3
35 19 3
35 20 3
35 26 2
35 27 1
35 29 2
35 30 1
35 31 1
36 0 2
36 1 1
36 4 3
36 8 2
36 9 1
36 10 1
36 11 3
36 12 2
36 16 2
36 19 1
36 21 2
36 22 2
36 23 3
36 27 3
36 28 1
36 29 1
36 32 1
37 0 1
37 2 3
37 3 2
37 6 1
37 13 2
37 14 3
37 17 1
37 18 3
37 20 1
37 22 2
37 23 3
37 24 1
37 25 1
37 26 3
37 27 3
37 28 3
37 29 2
37 30 1
37 34 3
37 35 2
38 0 3
38 5 3
38 8 2
38 11 3
38 16 3
38 19 2
38 20 3
38 21 3
38 22 2
38 31 1
38 32 2
38 33 1
38 34 3
38 35 2
38 36 3
38 37 1
39 2 1
39 3 3
39 4 3
39 5 2
39 6 3
39 8 3
39 11 1
39 12 3
39 13 3
39 19 2
39 20 2
39 21 2
39 23 3
39 24 3
39 26 3
39 28 2
39 32 1
39 33 1
39 34 2
39 35 3
39 36 1
39 37 3
40 0 2
40 5 2
40 6 2
40 8 2
40 9 2
40 12 3
40 13 1
40 14 3
40 15 1
40 16 1
40 17 2
40 19 2
40 22 3
40 24 2
40 26 1
40 27 1
40 30 2
40 35 2
40 36 1
40 39 2
41 1 1
41 2 1
41 3 1
41 4 3
41 5 1
41 7 2
41 9 1
41 10 3
41 14 1
41 15 2
41 18 3
41 19 1
41 22 3
41 24 3
41 25 1
41 31 2
41 32 3
41 35 1
41 37 3
41 38 2
41 39 2
42 0 3
42 1 3
42 7 2
42 9 1
42 10 2
42 15 1
42 16 1
42 17 1
42 18 2
42 19 1
42 24 2
42 27 1
42 30 2
42 34 3
42 35 2
42 36 1
43 0 1
43 3 3
43 4 2
43 7 2
43 9 2
43 10 1
43 12 1
43 14 1
43 15 2
43 16 1
43 17 2
43 19 3
43 20 2
43 21 1
43 23 2
43 27 2
43 33 2
43 35 2
43 36 2
43 37 3
43 40 3
43 41 2
43 42 2
44 0 1
44 2 2
44 3 2
44 4 3
44 5 2
44 7 1
44 8 1
44 9 2
44 10 2
44 11 2
44 16 2
44 18 2
44 19 1
44 22 1
44 24 1
44 25 1
44 27 2
44 29 2
44 30 1
44 32 3
44 33 3
44 36 1
44 42 3
45 1 1
45 2 1
45 5 2
45 6 1
45 8 1
45 9 2
45 11 3
45 14 1
45 15 1
45 17 2
45 18 2
45 20 2
45 22 3
45 24 1
45 25 1
45 30 3
45 31 2
45 35 3
45 39 2
45 41 2
45 43 1
46 1 2
46 4 1
46 6 1
46 7 3
46 9 3
46 10 1
46 15 1
46 16 1
46 19 2
46 21 2
46 26 3
46 27 3
46 31 2
46 32 1
46 33 3
46 35 2
46 36 1
46 37 3
46 41 3
46 44 1
46 45 3
47 1 1
47 4 2
47 5 1
47 6 3
47 7 1
47 8 3
47 10 1
47 13 1
47 15 2
47 19 3
47 20 2
47 23 1
47 26 1
47 29 2
47 30 2
47 31 1
47 32 1
47 35 2
47 36 3
47 38 1
47 40 3
47 41 1
47 42 1
47 43 3
47 45 2
